!File created by the GAMESS Input Deck Generator Plugin for Avogadro
 $BASIS GBASIS=STO NGAUSS=3 $END
 $CONTRL SCFTYP=RHF RUNTYP=SADPOINT $END
 $STATPT hssend=.t. OPTTOL=0.0005 NSTEP=50 $END
 $STATPT HESS=calc ihrep=5 $END
 $FORCE nvib=2 $END
 $ZMAT DLC=.t. auto=.t. nonvdw(1)=3,7,4,11 $END
!$ZMAT IFZMAT(1)=1,3,7,1,4,11 fvalue(1)=2.00,2.00 $END


 $DATA 
Title
C1
H     1.0     3.12419391    -4.88279629    -2.63568020
H     1.0     1.71905780    -6.16028738    -2.08301497
B     5.0     2.16394806    -5.09353304    -2.03075671
H     1.0     1.36413062    -4.25803041    -2.09096932
H     1.0     5.08376408    -3.62858844    -1.62902486
H     1.0     0.42221698    -4.90294647     0.42766353
C     6.0     3.02407098    -5.48583651    -0.24243619
H     1.0     3.12733150    -2.45261097    -1.06281090
C     6.0     4.78361368    -3.84469390    -0.60810655
H     1.0     4.89512444    -5.95015478    -1.27189815
C     6.0     2.42538023    -4.28070879    -0.10223951
C     6.0     1.04558158    -4.01665020     0.48844025
H     1.0     0.55222481    -3.19858932    -0.02765688
H     1.0     2.56796265    -6.42306042     0.04798415
C     6.0     4.53629923    -5.36924219    -0.42554337
C     6.0     3.43707776    -3.14039087    -0.27878717
H     1.0     5.57520485    -3.49648190     0.05011158
H     1.0     1.16216624    -3.74061346     1.53519785
H     1.0     3.49379635    -2.57636881     0.65157211
H     1.0     5.03027010    -5.74758577     0.46945515
 $END
