!File created by the GAMESS Input Deck Generator Plugin for Avogadro
 $BASIS GBASIS=STO NGAUSS=3 $END
 $CONTRL SCFTYP=RHF RUNTYP=OPTIMIZE NZVAR=1 mult=1  ICHARG=0 $END
 $STATPT hssend=.t. OPTTOL=0.0005 NSTEP=50 $END
 $STATPT HESS=calc ihrep=5 $END
 $FORCE nvib=2 $END
 $ZMAT DLC=.t. auto=.t. nonvdw(1)=3,7,4,11 $END
 $ZMAT IFZMAT(1)=1,3,7,1,4,11 fvalue(1)=2.00,2.00 $END

 $DATA 
Title
C1
H     1.0     4.29189    -5.16363    -1.97992
H     1.0     2.48044    -6.21128    -1.58597
B     5.0     3.11508    -5.26026    -1.89513
H     1.0     2.58920    -4.32154    -1.27440
H     1.0     4.02474    -3.70377    -2.05377
H     1.0     0.69700    -3.24539     0.06594
C     6.0     2.76032    -5.44949    -0.41718
H     1.0     3.06908    -2.22616    -0.51018
C     6.0     4.40804    -3.86563    -1.02127
H     1.0     4.58253    -5.98639    -1.57373
C     6.0     2.34850    -4.23194     0.06069
C     6.0     1.05697    -4.00061     0.79527
H     1.0     1.14120    -3.65449    -0.25687
H     1.0     2.22645    -6.38232    -0.15539
C     6.0     4.24007    -5.35222    -0.72838
C     6.0     3.41794    -3.18901    -0.07919
H     1.0     5.44608    -3.47309    -0.99221
H     1.0     0.92551    -3.60380     1.82318
H     1.0     3.85091    -3.02581     0.93106
H     1.0     4.79301    -5.62696     0.19640
 $END
