!File created by the GAMESS Input Deck Generator Plugin for Avogadro
 $BASIS GBASIS=STO NGAUSS=3 $END
 $CONTRL SCFTYP=RHF RUNTYP=SADPOINT $END
 $STATPT hssend=.t. OPTTOL=0.0005 NSTEP=50 $END
 $STATPT HESS=calc ihrep=5 $END
 $FORCE nvib=2 $END
 $ZMAT DLC=.t. auto=.t. nonvdw(1)=3,7,4,11 $END
!$ZMAT IFZMAT(1)=1,3,7,1,4,11 fvalue(1)=2.00,2.00 $END


 $DATA 
Title
C1
H     1.0     3.10269737    -5.24404812    -2.64489794
H     1.0     1.35330260    -5.90278435    -1.96446848
B     5.0     2.16667914    -5.08415508    -1.98943436
H     1.0     1.75661242    -4.00603819    -2.01942849
H     1.0     4.89137793    -3.67773199    -1.75577879
H     1.0     0.41279933    -4.96400738     0.30610171
C     6.0     3.06240749    -5.50233126    -0.25081435
H     1.0     3.10914755    -2.35722470    -0.90061182
C     6.0     4.75347853    -3.82286787    -0.68831563
H     1.0     5.00768805    -5.96902752    -1.14668405
C     6.0     2.42100191    -4.30392838    -0.15667576
C     6.0     1.02540910    -4.07520437     0.41565436
H     1.0     0.53580827    -3.24336553    -0.08118417
H     1.0     2.62002921    -6.44905663     0.02916575
C     6.0     4.57614517    -5.33302021    -0.37756288
C     6.0     3.43341756    -3.14985847    -0.23118792
H     1.0     5.61569929    -3.40282583    -0.17782432
H     1.0     1.11789799    -3.83933949     1.47419298
H     1.0     3.53124666    -2.72583270     0.76809222
H     1.0     5.04057026    -5.59652233     0.57316178
 $END
