!File created by the GAMESS Input Deck Generator Plugin for Avogadro
 $BASIS GBASIS=STO NGAUSS=3 $END
 $CONTRL SCFTYP=RHF RUNTYP=IRC $END
 $STATPT HESS=READ ihrep=5 $END
 $irc npoint=100 saddle=.t. tsengy=.t. forwrd=.t. optto=0.0005 stride=0.1 $END


 $DATA 
Title
C1
H     1.0     3.12419391    -4.88279629    -2.63568020
H     1.0     1.71905780    -6.16028738    -2.08301497
B     5.0     2.16394806    -5.09353304    -2.03075671
H     1.0     1.36413062    -4.25803041    -2.09096932
H     1.0     5.08376408    -3.62858844    -1.62902486
H     1.0     0.42221698    -4.90294647     0.42766353
C     6.0     3.02407098    -5.48583651    -0.24243619
H     1.0     3.12733150    -2.45261097    -1.06281090
C     6.0     4.78361368    -3.84469390    -0.60810655
H     1.0     4.89512444    -5.95015478    -1.27189815
C     6.0     2.42538023    -4.28070879    -0.10223951
C     6.0     1.04558158    -4.01665020     0.48844025
H     1.0     0.55222481    -3.19858932    -0.02765688
H     1.0     2.56796265    -6.42306042     0.04798415
C     6.0     4.53629923    -5.36924219    -0.42554337
C     6.0     3.43707776    -3.14039087    -0.27878717
H     1.0     5.57520485    -3.49648190     0.05011158
H     1.0     1.16216624    -3.74061346     1.53519785
H     1.0     3.49379635    -2.57636881     0.65157211
H     1.0     5.03027010    -5.74758577     0.46945515
 $END
$HESS
ENERGY IS     -256.3426283730 E(NUC) IS      307.5087198683
 1  1 2.75561513E-01 4.74611352E-02-1.35650904E-01-1.63716153E-03 3.55811064E-03
 1  2 4.38257579E-03-2.64834501E-01-4.57357658E-02 1.39580820E-01-9.32397702E-03
 1  3-7.57126843E-03 1.19762248E-02-2.44260160E-04-1.32171640E-04-7.99789348E-04
 1  4 2.29957991E-04-9.63387391E-06-2.43115657E-04 1.94611878E-03-2.45219236E-03
 1  5-1.07023161E-02-1.22079863E-04 8.36456948E-05 2.57164297E-04-7.80052402E-04
 1  6-3.71995495E-04-7.82247167E-04 1.67273551E-04-1.43291970E-04-5.95046157E-04
 1  7-1.13645494E-03 3.71546783E-03-5.52487372E-03-5.80685419E-04 1.67828793E-04
 1  8 3.86796567E-04 1.86817980E-04-9.13398087E-05-6.48478733E-05 9.39372801E-05
 1  9 2.77246429E-04 4.18494105E-05-6.30056126E-04 7.96853465E-04-1.70776044E-03
 1 10 5.76366676E-04 6.22096867E-04 2.01188294E-04-1.69384853E-05 6.23916764E-05
 1 11-3.33945396E-04 3.34303526E-04-2.74757720E-05 8.63244389E-05 3.78195956E-05
 1 12-4.79202853E-05-2.34231379E-05 1.72112859E-04-1.61813554E-04-4.84691169E-04
 2  1 4.74611352E-02 6.33607217E-02-3.05387807E-02-2.16121689E-02 3.21082721E-03
 2  2 1.65437210E-02-4.83448101E-02-7.36463115E-02 2.74767682E-02 1.90629071E-02
 2  3 8.58920969E-03-1.42836379E-02-2.51240204E-04-8.15662239E-05-5.03374547E-04
 2  4 2.75638875E-05-5.05326268E-05-6.93037757E-05-2.76076068E-04-4.42338931E-04
 2  5 3.81367042E-03 1.03389987E-05 2.51007857E-04 1.17316269E-04-4.46946413E-04
 2  6-3.13292649E-04-4.11895818E-04-6.84654821E-05-2.29920404E-05 3.61920774E-04
 2  7 4.10160553E-03-1.25232421E-03-8.94526045E-04-3.72715564E-04-2.65766897E-04
 2  8-1.44623628E-03-9.40690485E-05 7.07029399E-05-9.43986272E-05 4.72039987E-05
 2  9-1.80184097E-05-9.35023040E-05 1.39539269E-04-9.23215128E-06 3.28566014E-04
 2 10 3.78451765E-04 3.63649396E-04 1.40321102E-04-5.34496668E-05 8.49424854E-05
 2 11-1.90128536E-04 3.56851918E-04 6.37083330E-06-2.40385094E-04 2.83050331E-05
 2 12 6.90212616E-05-9.18962514E-05-9.39605731E-05 9.59224924E-05 7.58100136E-05
 3  1-1.35650904E-01-3.05387807E-02 1.34033736E-01-4.14984230E-03-8.74862266E-04
 3  2 8.31608109E-03 1.32879545E-01 2.60219928E-02-1.25768479E-01-3.77092192E-03
 3  3-3.33138548E-04 8.69111354E-03-3.04670972E-04-1.09384869E-04-2.36307685E-04
 3  4 1.11136508E-04-1.19862394E-04-1.62221472E-04 6.04689197E-03-3.30652160E-03
 3  5-1.88366240E-02-2.73833620E-04 5.63435914E-05 2.06879185E-04 2.22626379E-04
 3  6-6.59755461E-05-2.74366708E-04 3.69716872E-05-8.89919123E-05-6.26275610E-07
 3  7 2.19791182E-03 7.57816111E-03-5.16739691E-03-1.29922280E-03-1.83585062E-04
 3  8-1.26340666E-03 2.07490699E-04 2.49920568E-05-1.52589955E-04-2.13814025E-04
 3  9 2.25726413E-04-2.66524548E-04 1.59227066E-03 6.43166591E-04 2.94751047E-04
 3 10 1.62788650E-03 1.33473655E-03 5.44753697E-04-1.46371097E-04 2.93967673E-05
 3 11 1.15747859E-05 8.45442747E-04-1.77709454E-04-8.70166958E-05-1.49671709E-04
 3 12-1.33589666E-04 1.09515554E-04 1.91160617E-04 1.78208668E-05 7.04596553E-06
 4  1-1.63716153E-03-2.16121689E-02-4.14984230E-03 9.62024722E-02 1.09712371E-01
 4  2 5.39086437E-03-1.01641373E-01-1.07754157E-01 5.83325223E-03 1.43821697E-02
 4  3 2.34309748E-02 3.70209432E-03 5.73746911E-05 8.22950050E-05-4.99866225E-05
 4  4 1.38623825E-04-7.05167023E-05-1.41306916E-04-3.54801833E-03-7.57557897E-03
 4  5-1.13661210E-02-1.18132455E-04-5.97543153E-05 1.25346654E-05 7.28648226E-05
 4  6-1.92499258E-04 2.79318823E-05 1.47762982E-04 9.51297867E-05 1.13441671E-04
 4  7-4.92972908E-03 3.81607343E-03-9.49693403E-04-2.86978314E-04 2.05012140E-04
 4  8 6.40474451E-04 1.77293251E-04 6.38826185E-07 5.99743798E-05 1.79246035E-04
 4  9-3.59195911E-05 4.24829318E-04 3.80255211E-04-1.07460066E-04 8.50264720E-04
 4 10 2.88298865E-04 7.67918928E-05-2.90915403E-04-1.14731494E-05 3.67052438E-05
 4 11-1.03646493E-04 7.11371377E-05-8.95500034E-05 1.19522814E-04-1.07557063E-04
 4 12-1.22923145E-04 1.47314639E-05 1.82935071E-04 1.64593866E-04-1.38494137E-04
 5  1 3.55811064E-03 3.21082721E-03-8.74862266E-04 1.09712371E-01 3.16762846E-01
 5  2 1.02067208E-02-1.04910605E-01-3.07320355E-01-1.53480755E-02-1.21422129E-02
 5  3-1.33961277E-02-1.82861940E-03 8.25791325E-05 1.90197273E-05 5.22377048E-06
 5  4-3.53902101E-05-3.66399345E-05-4.37883805E-05 2.60967863E-04 5.30953132E-04
 5  5 4.93590711E-03 1.45769520E-04 3.53069697E-04-5.92806546E-05 1.36330611E-04
 5  6 1.17443888E-04-9.88003967E-06-5.82509450E-05-6.90209293E-05-3.79600348E-05
 5  7 2.40951557E-03-7.26117672E-04 2.90955453E-03 4.90721992E-04-1.43892715E-04
 5  8-3.64470808E-04-1.28034260E-04 5.93976784E-05-3.39099841E-05 1.27054539E-03
 5  9 9.57329970E-04 1.78479443E-03 1.77055002E-05 1.40073735E-04-5.16193743E-04
 5 10-4.42042620E-04-5.27502828E-04-5.76797696E-04-2.52733859E-05-6.24561308E-06
 5 11-3.05998577E-05-5.96583449E-05 4.19525872E-05-4.99481084E-05-6.47813237E-05
 5 12 5.78636202E-05-7.63760358E-05-2.18347779E-04-2.48675120E-05 8.56408215E-06
 6  1 4.38257579E-03 1.65437210E-02 8.31608109E-03 5.39086437E-03 1.02067208E-02
 6  2 4.93927646E-02 4.63797432E-03-1.50922444E-02-4.77010235E-02 2.73012990E-03
 6  3 2.92201659E-03 5.99054255E-03-3.09796953E-04 1.64363291E-05 4.16317808E-05
 6  4 7.40437487E-05-5.95513286E-05 1.30722855E-04-7.82135963E-03-1.31207534E-02
 6  5-1.96277104E-02-6.13491171E-04-4.71568760E-04-2.22529061E-04 3.01462860E-04
 6  6-4.58073542E-04-1.72580562E-06-2.04914046E-04 2.57856449E-04-3.10963180E-05
 6  7-5.69282085E-03 1.93405333E-04 5.65499434E-03-2.09095152E-03 1.91154892E-04
 6  8 2.04908010E-04 2.61399309E-04 1.02467672E-05-2.41709821E-04-2.37400800E-03
 6  9-9.64637344E-04-6.03219149E-04 9.59215516E-05-1.59644394E-04 5.76642860E-04
 6 10 1.30743280E-03 2.68521595E-04-2.46385335E-03-1.21399344E-04 1.79247556E-04
 6 11 1.96946640E-04 8.29450381E-04 1.84818312E-05-9.93013079E-05-1.01526850E-03
 6 12-6.52879194E-04 4.39278801E-04 2.32689031E-04 1.71548671E-04 4.75076080E-05
 7  1-2.64834501E-01-4.83448101E-02 1.32879545E-01-1.01641373E-01-1.04910605E-01
 7  2 4.63797432E-03 5.95749127E-01 1.53122409E-02-1.54365475E-01-1.96188162E-01
 7  3 1.42161323E-01-9.96944820E-03 2.13060195E-05-3.00545426E-04-1.70526182E-04
 7  4-6.14614025E-04 5.66222856E-04 7.39359457E-04-1.91903601E-02 2.87987620E-02
 7  5 3.26223635E-02 6.66038299E-04 1.62397971E-04-1.11970371E-03-1.17166352E-03
 7  6 4.20436742E-04 1.34128130E-04 3.94805839E-04-2.80458576E-04-1.36240758E-03
 7  7 2.40845206E-03-2.75949261E-02 1.21723107E-02 3.37413640E-03 5.46175072E-04
 7  8 4.87547745E-03-4.08527675E-04-2.72868458E-04-1.32947519E-04-1.75593019E-03
 7  9-3.08115543E-03-3.78484461E-03-7.76699816E-03 1.52572227E-03-1.37122833E-02
 7 10-4.83163477E-03-4.43655108E-03-3.71721014E-03 4.15885094E-04-1.08030745E-04
 7 11-7.92814212E-06-2.13654139E-03 6.57207121E-04 8.72347171E-05-2.56440573E-05
 7 12 4.16428203E-04-3.49665638E-04-2.46383430E-03-1.23694550E-03 5.44310347E-04
 8  1-4.57357658E-02-7.36463115E-02 2.60219928E-02-1.07754157E-01-3.07320355E-01
 8  2-1.50922444E-02 1.53122409E-02 6.16350495E-01-2.83007125E-02 1.46154315E-01
 8  3-2.05015375E-01 1.85499728E-02-3.27593251E-04 4.84354547E-04-1.31538081E-04
 8  4 3.52200235E-04 1.39418625E-05 4.64406251E-04-2.78001017E-03-2.08892412E-02
 8  5-2.08812883E-02-1.02844726E-03-1.66358036E-04-1.01866773E-03 6.14658429E-05
 8  6-1.99535617E-03-2.90504568E-04 5.16816255E-04 1.03881823E-03 6.06935403E-04
 8  7-5.99189213E-03-9.65075962E-03 1.61863135E-02-3.18206354E-03 6.72353243E-04
 8  8-2.51313063E-03-1.62226894E-04 3.56478417E-04 2.22240099E-04 3.78665800E-03
 8  9 4.56132205E-03 9.12955018E-03-1.08880204E-04-2.27016520E-03 7.95530835E-03
 8 10-9.16179825E-04-3.18764063E-03-1.09555940E-02-8.51107568E-05 6.17016076E-04
 8 11-3.63799933E-05 1.56031149E-03 7.77889994E-05 1.00472205E-04-2.53998410E-03
 8 12-1.34047428E-03 6.28722614E-04 2.86826683E-03 1.30957924E-03-6.46188092E-04
 9  1 1.39580820E-01 2.74767682E-02-1.25768479E-01 5.83325223E-03-1.53480755E-02
 9  2-4.77010235E-02-1.54365475E-01-2.83007125E-02 2.36063563E-01-4.99122161E-03
 9  3 1.27550057E-02-4.81540964E-02 7.54860949E-04 3.47429491E-04-2.19749809E-04
 9  4-5.80248027E-04 2.09902880E-04 4.14600302E-04-1.59570504E-02 5.42418599E-02
 9  5 1.04151591E-02 1.03644318E-03 1.59577287E-03-3.23307316E-04-7.52057109E-04
 9  6-5.62709381E-05 6.68600474E-04 2.69552917E-03-1.20561139E-04-3.98890764E-04
 9  7 3.87613096E-02-4.79001810E-02 2.30713198E-03 3.73674642E-03-1.56689638E-03
 9  8-1.28383994E-02-2.01332280E-03 5.75641539E-04 6.51474387E-04-2.32923799E-03
 9  9-7.84338077E-04-1.05005347E-02-8.20279211E-03-1.42393743E-03-2.20918668E-03
 9 10-6.04951373E-03-3.70309014E-03 1.21734171E-03 2.91879555E-04 1.66749808E-04
 9 11-6.85290359E-04-5.43703257E-04 3.43316645E-04-5.95860732E-04 1.37877977E-03
 9 12 1.73440766E-03-1.10721660E-03 1.71509517E-03-2.42684199E-04-1.23582183E-03
10  1-9.32397702E-03 1.90629071E-02-3.77092192E-03 1.43821697E-02-1.21422129E-02
10  2 2.73012990E-03-1.96188162E-01 1.46154315E-01-4.99122161E-03 1.98304646E-01
10  3-1.54474268E-01 7.81494098E-03 8.88115068E-05 4.29869158E-06-5.69208054E-06
10  4 8.93291048E-05 1.41990630E-04 2.72375702E-05-1.70424809E-03-2.69013748E-03
10  5 2.41056281E-03 3.86161416E-05 1.51535367E-04-1.52432943E-05 1.75415390E-05
10  6 2.81960148E-04 2.08275726E-05 7.09705204E-05-1.30091437E-04-2.50711203E-04
10  7-5.17643202E-03 2.83711135E-03-8.02574335E-03 9.27046150E-05 7.53833982E-04
10  8 3.74366423E-03 2.67357060E-04-1.52055827E-04 6.89340804E-04 1.49746385E-04
10  9-1.06571776E-04 5.84291597E-04-6.36908516E-04 4.59583540E-04-1.48952194E-03
10 10 6.22775983E-05 1.75298770E-04 1.40420091E-04 3.19743418E-06-6.52220023E-05
10 11-5.70022260E-05-1.84488164E-04-8.86193775E-05 5.01588075E-04 8.62556197E-05
10 12 4.32189146E-05-5.29516519E-06-4.39376196E-04-2.16900894E-04-5.16659887E-05
11  1-7.57126843E-03 8.58920969E-03-3.33138548E-04 2.34309748E-02-1.33961277E-02
11  2 2.92201659E-03 1.42161323E-01-2.05015375E-01 1.27550057E-02-1.54474268E-01
11  3 2.11670392E-01-9.27582667E-03 1.00871840E-05-4.68253432E-05-8.11929201E-06
11  4 4.27239868E-05 1.39540496E-06 6.49371698E-05-2.91737909E-03-6.76015062E-04
11  5 1.92450851E-03-7.93095112E-05 2.86711056E-04-3.50494335E-04-8.05440244E-05
11  6 1.69295459E-04-5.06215554E-05-2.73085190E-04-3.97581422E-05-1.30885664E-04
11  7 6.99991989E-04-6.64900859E-04-2.37710025E-03 4.28156398E-04-6.54234627E-04
11  8-2.64236488E-03-2.28377955E-04 2.14998767E-04-6.67400024E-04 1.23269076E-04
11  9-4.70140735E-04 4.09252862E-04 1.50780574E-04 2.67021020E-04-1.29345699E-03
11 10-7.88975858E-04-6.66143121E-04-6.07194880E-04-5.94964987E-06-1.11972572E-05
11 11 2.81229661E-06-4.05483657E-05 3.46036030E-04-3.02362685E-04-6.33593302E-05
11 12 2.19936445E-04-1.15387371E-04-5.24260640E-04-1.24329781E-04 7.59621781E-05
12  1 1.19762248E-02-1.42836379E-02 8.69111354E-03 3.70209432E-03-1.82861940E-03
12  2 5.99054255E-03-9.96944820E-03 1.85499728E-02-4.81540964E-02 7.81494098E-03
12  3-9.27582667E-03 5.19832259E-02-6.27503404E-05-2.97452264E-04-1.86263741E-05
12  4-4.74961088E-04-1.03245921E-04 1.71867169E-04-9.04726657E-04 4.71341567E-03
12  5 6.58142319E-03 2.67213885E-04 5.74039667E-05 2.87129818E-05-2.03710789E-04
12  6 6.46075231E-04-2.74392541E-05-6.34914061E-04-2.84822180E-04-8.01467334E-05
12  7-1.00808139E-02 4.66957168E-03-1.77789354E-02 4.25991041E-05-1.31145407E-03
12  8-3.54680914E-03-1.64596952E-04 1.02235685E-04-5.87982534E-04-1.36051079E-03
12  9-1.99922117E-03-1.61437169E-03 1.48089175E-03 1.00163622E-03-3.02299870E-03
12 10-7.99215821E-05-7.57570549E-05 7.27728617E-04 7.47087338E-05-2.80819658E-04
12 11 1.08271110E-04-2.61244681E-04 2.20378939E-04-4.04520083E-05 3.34767827E-04
12 12 2.56889612E-04-2.02795770E-05-1.49590076E-03-4.76660446E-04 6.09525031E-04
13  1-2.44260160E-04-2.51240204E-04-3.04670972E-04 5.73746911E-05 8.25791325E-05
13  2-3.09796953E-04 2.13060195E-05-3.27593251E-04 7.54860949E-04 8.88115068E-05
13  3 1.00871840E-05-6.27503404E-05 1.02457071E-01 1.93051843E-02-1.02947414E-01
13  4-2.15863866E-04 6.75640305E-05 8.80708071E-05-9.33310046E-04-3.42785334E-04
13  5-6.83622876E-04 2.98430025E-03-1.42244972E-03 9.23138021E-05-1.04499316E-01
13  6-2.39862945E-02 9.75968110E-02 8.24907515E-04 7.53421177E-04-4.15902715E-04
13  7-2.12954765E-03 1.85501893E-03 8.85307023E-04-4.58230835E-04-7.63407667E-04
13  8-2.41480934E-04 3.85759960E-05-1.01630242E-06 2.43372909E-05 8.04697332E-05
13  9-5.25523938E-05-2.44618177E-05 1.66137469E-04 1.04981381E-03 4.42584613E-03
13 10-7.20026330E-03-5.39348947E-03 3.48915359E-02 1.31648855E-02 8.37357981E-03
13 11-3.40535007E-02 9.47887627E-05-1.05951771E-05-7.43057990E-05-4.30849676E-03
13 12 7.25937775E-04 4.87079180E-04 1.05060198E-05 3.28264767E-04-1.28252565E-04
14  1-1.32171640E-04-8.15662239E-05-1.09384869E-04 8.22950050E-05 1.90197273E-05
14  2 1.64363291E-05-3.00545426E-04 4.84354547E-04 3.47429491E-04 4.29869158E-06
14  3-4.68253432E-05-2.97452264E-04 1.93051843E-02 9.10969708E-02-7.47304545E-02
14  4 1.69319940E-04-3.20101926E-05-6.85584380E-05 8.95513133E-04-2.82168769E-03
14  5 8.07059343E-04-8.59057999E-04 1.37464373E-03-6.04232961E-04-2.40222527E-02
14  6-8.55251527E-02 7.21142984E-02 3.04923949E-04 3.51934951E-03 5.57147025E-04
14  7 6.18708286E-04-2.30241453E-03-1.10987154E-03 3.52361198E-04 7.00964672E-04
14  8 1.58054957E-04-8.22417785E-05 6.39534234E-06 5.67362109E-06-9.59856311E-04
14  9 1.41697599E-04-1.97085953E-04-8.58393412E-03-7.89355369E-03 4.05427402E-02
14 10 7.19373425E-03 3.15403213E-03-2.14456352E-02 5.26006195E-03 4.37844260E-03
14 11-1.57090216E-02-9.68449858E-05 5.65738765E-06 4.39290710E-05 3.54934743E-03
14 12-7.97605460E-04-5.37090934E-04-2.69882644E-03-5.38078783E-03 2.16047546E-04
15  1-7.99789348E-04-5.03374547E-04-2.36307685E-04-4.99866225E-05 5.22377048E-06
15  2 4.16317808E-05-1.70526182E-04-1.31538081E-04-2.19749809E-04-5.69208054E-06
15  3-8.11929201E-06-1.86263741E-05-1.02947414E-01-7.47304545E-02 4.36342858E-01
15  4-2.05558177E-05-1.04039998E-05 1.10962750E-05 1.30247077E-04-7.46661801E-04
15  5 2.78712503E-05-1.20155777E-03 4.92969896E-04 1.53716826E-03 9.68029257E-02
15  6 7.12103945E-02-4.25393976E-01-2.67662023E-04-1.01171028E-03 1.41092535E-03
15  7-4.08254918E-04 1.71384301E-04-1.47255022E-04 9.78201559E-06-7.99071245E-05
15  8 7.30599031E-06 1.26644047E-05-2.68233416E-06 2.76367211E-06-1.81745352E-04
15  9 5.22760774E-05-1.74410523E-05-1.52636220E-03-3.37804372E-03 3.35075166E-03
15 10-2.51150085E-03 1.37469099E-03-2.94622317E-04 1.28005900E-02 7.56006109E-03
15 11-1.71663118E-02-2.69649678E-05 8.24659255E-06 7.73174993E-06 3.31344787E-04
15 12 1.38136635E-04 3.41832220E-04 3.05095123E-05-4.10498027E-04 4.12440070E-04
16  1 2.29957991E-04 2.75638875E-05 1.11136508E-04 1.38623825E-04-3.53902101E-05
16  2 7.40437487E-05-6.14614025E-04 3.52200235E-04-5.80248027E-04 8.93291048E-05
16  3 4.27239868E-05-4.74961088E-04-2.15863866E-04 1.69319940E-04-2.05558177E-05
16  4 2.06781881E-01 1.93203655E-01 1.24746923E-02 3.49968267E-03-5.59310424E-04
16  5 9.66001288E-06-1.67284440E-04 2.26146946E-05-9.76402200E-05-5.66584076E-04
16  6-1.33972253E-03 1.62524596E-04 6.09213036E-05 8.61871213E-05 3.78225541E-06
16  7-2.01775768E-02-3.36795249E-02-3.39821779E-03-2.01991003E-01-1.82482973E-01
16  8-1.58159179E-02 1.59478036E-02 2.06176287E-02 2.60675116E-03-1.65694553E-04
16  9 1.73423689E-04-1.77754351E-04 2.45302300E-04-4.18827345E-04 9.45317719E-05
16 10-2.98661080E-03 3.34727853E-03 2.09425577E-03-2.21049168E-04 2.05233656E-04
16 11 1.26122720E-04-2.04869217E-04-1.24441468E-04 2.79293482E-03 2.47327406E-04
16 12 3.47154492E-04 5.52327966E-05 7.02791427E-05 4.52274113E-05-4.02589091E-05
17  1-9.63387391E-06-5.05326268E-05-1.19862394E-04-7.05167023E-05-3.66399345E-05
17  2-5.95513286E-05 5.66222856E-04 1.39418625E-05 2.09902880E-04 1.41990630E-04
17  3 1.39540496E-06-1.03245921E-04 6.75640305E-05-3.20101926E-05-1.04039998E-05
17  4 1.93203655E-01 3.48875819E-01 2.13677058E-02 5.73537980E-04 1.32125834E-03
17  5-7.21612970E-04 1.87083533E-04 5.99007645E-05 2.17240978E-07 3.67500065E-04
17  6 4.96158273E-04-1.74005890E-05 3.01502870E-05-1.44403360E-06 6.52010121E-06
17  7 9.97403579E-03 1.25000489E-02 6.66167957E-04-1.84431656E-01-3.42063435E-01
17  8-1.80932176E-02-2.10174463E-02-1.68309689E-02-7.39778574E-03-9.30861937E-05
17  9 7.83024550E-05 3.87010563E-05-4.23478062E-05-6.47001966E-05 1.13891922E-04
17 10 1.88217698E-03-9.07383992E-04-1.35058999E-03 1.19525003E-04-4.64525883E-05
17 11-4.41693416E-05-1.56738322E-03-3.27290773E-03 5.52493521E-03 5.41536662E-05
17 12-5.48378334E-05 5.53206871E-06 6.44650089E-05 1.43481522E-05-1.56748256E-05
18  1-2.43115657E-04-6.93037757E-05-1.62221472E-04-1.41306916E-04-4.37883805E-05
18  2 1.30722855E-04 7.39359457E-04 4.64406251E-04 4.14600302E-04 2.72375702E-05
18  3 6.49371698E-05 1.71867169E-04 8.80708071E-05-6.85584380E-05 1.10962750E-05
18  4 1.24746923E-02 2.13677058E-02 6.97511413E-02-1.34369717E-03 2.65204127E-04
18  5 3.54049948E-07-1.39440822E-04-1.45503261E-04 1.23721114E-04 4.14548613E-04
18  6 7.76676018E-04 8.65449181E-05 1.46575897E-05-3.09228977E-05 4.17527225E-06
18  7 1.20943452E-02 1.70583526E-02-8.86002995E-05-1.65955538E-02-1.83111474E-02
18  8-7.76009081E-02 1.56307267E-02 1.73262238E-02 2.86394928E-03 1.37849222E-05
18  9-8.82577278E-05 7.38011864E-05-3.24967464E-05 2.11725519E-04-2.08239380E-04
18 10 2.46953809E-03-2.05414684E-03-1.86698784E-04 1.63320922E-04-1.41606285E-04
18 11-8.26031802E-05-2.55721056E-02-3.65729098E-02 4.68900603E-03 1.97486248E-05
18 12 4.08065118E-05-1.27809717E-05-8.23135802E-05-4.99792954E-05 2.10437696E-05
19  1 1.94611878E-03-2.76076068E-04 6.04689197E-03-3.54801833E-03 2.60967863E-04
19  2-7.82135963E-03-1.91903601E-02-2.78001017E-03-1.59570504E-02-1.70424809E-03
19  3-2.91737909E-03-9.04726657E-04-9.33310046E-04 8.95513133E-04 1.30247077E-04
19  4 3.49968267E-03 5.73537980E-04-1.34369717E-03 7.63109745E-01-3.90923132E-02
19  5-1.29875584E-01-4.74802333E-03-2.14143982E-03-7.24215351E-05-1.27919288E-02
19  6-1.80042344E-02 1.72157723E-03-1.15975620E-02-2.01244117E-03-2.47557092E-03
19  7-2.30935663E-01 2.16803888E-01 6.20963849E-02-1.32237490E-02 3.57140089E-02
19  8-2.00209807E-03-4.23584127E-03 5.08537315E-04 3.92074199E-03-1.49288469E-01
19  9-1.41703682E-01 5.52895157E-02-3.05988756E-01-2.29242019E-02 2.44940409E-02
19 10 1.41656797E-02-1.83442475E-02-1.25670521E-03-1.04521049E-03 3.08348906E-04
19 11 1.11713533E-03 1.15148949E-05-3.54560079E-05-1.01463814E-03-3.45445733E-03
19 12-2.62908444E-03 1.39604496E-03-2.00471908E-02-2.20423339E-03 6.51114313E-03
20  1-2.45219236E-03-4.42338931E-04-3.30652160E-03-7.57557897E-03 5.30953132E-04
20  2-1.31207534E-02 2.87987620E-02-2.08892412E-02 5.42418599E-02-2.69013748E-03
20  3-6.76015062E-04 4.71341567E-03-3.42785334E-04-2.82168769E-03-7.46661801E-04
20  4-5.59310424E-04 1.32125834E-03 2.65204127E-04-3.90923132E-02 1.11690445E+00
20  5-9.95697753E-02-2.28089244E-03-1.80451176E-03-4.68981276E-04-3.82328450E-02
20  6-1.31129201E-02 2.59074347E-03 2.47822479E-02 5.66862316E-03 5.75471985E-04
20  7 1.81786663E-01-5.43243084E-01-6.40193475E-02 4.38225273E-04 1.72196322E-03
20  8 2.83626432E-03-1.39238403E-03 5.70236227E-04 1.19418928E-03-1.52631521E-01
20  9-3.80001375E-01 1.05203053E-01-6.57269384E-03-1.17760470E-01 5.99637948E-03
20 10 3.02270425E-03-4.33992220E-02 1.67351796E-03 5.51750312E-04-5.37729694E-03
20 11 1.94740947E-03-2.00749898E-03 5.88982253E-04 1.46246017E-03-1.05637215E-03
20 12-9.75346481E-04 1.56459529E-03 1.75061413E-02 3.19688943E-03-3.03250755E-03
21  1-1.07023161E-02 3.81367042E-03-1.88366240E-02-1.13661210E-02 4.93590711E-03
21  2-1.96277104E-02 3.26223635E-02-2.08812883E-02 1.04151591E-02 2.41056281E-03
21  3 1.92450851E-03 6.58142319E-03-6.83622876E-04 8.07059343E-04 2.78712503E-05
21  4 9.66001288E-06-7.21612970E-04 3.54049948E-07-1.29875584E-01-9.95697753E-02
21  5 2.29972780E-01-3.98426443E-04 7.24300351E-04 1.42924817E-04 8.66371157E-03
21  6 2.38796550E-03 3.17040506E-04 3.06228849E-02 8.79497912E-03 2.72560618E-03
21  7 1.90135005E-02 2.41920863E-03-5.99077646E-02 3.79079555E-03-1.32994305E-02
21  8 5.24148564E-03 1.98460237E-03 1.25250882E-03-5.99712352E-04 5.29646182E-02
21  9 1.00176087E-01-7.50004496E-02 3.14453922E-02 8.18645499E-03-9.61826586E-02
21 10 2.30255265E-03 3.95242199E-03 5.07961731E-03 1.94868161E-05 9.50533802E-04
21 11-3.12834690E-04 2.27051513E-03-3.80681225E-04 4.24533352E-04-1.24455948E-03
21 12-6.27156615E-04 2.65963404E-04-3.38502482E-02-4.84563139E-03 9.27246797E-03
22  1-1.22079863E-04 1.03389987E-05-2.73833620E-04-1.18132455E-04 1.45769520E-04
22  2-6.13491171E-04 6.66038299E-04-1.02844726E-03 1.03644318E-03 3.86161416E-05
22  3-7.93095112E-05 2.67213885E-04 2.98430025E-03-8.59057999E-04-1.20155777E-03
22  4-1.67284440E-04 1.87083533E-04-1.39440822E-04-4.74802333E-03-2.28089244E-03
22  5-3.98426443E-04 1.02867938E-01-7.16700981E-02 8.19719403E-02-7.22048451E-03
22  6 2.03496666E-02-2.49035512E-02 2.37163798E-04 4.63733574E-04-2.33826976E-04
22  7 1.19382783E-02-1.98578817E-02 2.50826611E-02 7.91508565E-04-1.47660028E-04
22  8-9.65556272E-04-1.51515401E-04 1.40919001E-04 9.21782312E-05 5.26711282E-04
22  9-5.86032178E-04-1.69283441E-03-4.33383992E-03 4.60716769E-04 1.07734832E-03
22 10-1.01914245E-01 6.94498820E-02-8.00469151E-02-2.41415805E-03 1.98956971E-03
22 11 9.89120028E-04 6.74167386E-05-3.21664448E-05-1.19067197E-04 4.13085680E-04
22 12 2.46197275E-03 1.02170362E-04 6.58625708E-04 8.81865735E-04-3.05844972E-05
23  1 8.36456948E-05 2.51007857E-04 5.63435914E-05-5.97543153E-05 3.53069697E-04
23  2-4.71568760E-04 1.62397971E-04-1.66358036E-04 1.59577287E-03 1.51535367E-04
23  3 2.86711056E-04 5.74039667E-05-1.42244972E-03 1.37464373E-03 4.92969896E-04
23  4 2.26146946E-05 5.99007645E-05-1.45503261E-04-2.14143982E-03-1.80451176E-03
23  5 7.24300351E-04-7.16700981E-02 2.30332377E-01-1.84426098E-01 1.50157734E-03
23  6-5.56119648E-03 9.53111688E-03 4.12333534E-05-7.78677223E-05-1.38140875E-05
23  7 9.51348346E-03-1.85903639E-02 1.92820770E-02 5.53068874E-04 4.87563332E-04
23  8-7.50931677E-04-2.23979145E-04 1.95085240E-04 1.17859241E-04-8.14459377E-05
23  9-6.01588634E-04-1.65443988E-03 4.68354363E-04-1.45678716E-03 1.08376702E-03
23 10 6.97454000E-02-2.23207157E-01 1.76847319E-01 4.28069137E-04-6.86432711E-04
23 11-1.44964294E-04 9.90964681E-05 4.97238415E-05-4.74091670E-05-7.34049031E-03
23 12 1.90466679E-02-2.19937099E-02 1.69078056E-04-2.84578957E-04-1.40642378E-04
24  1 2.57164297E-04 1.17316269E-04 2.06879185E-04 1.25346654E-05-5.92806546E-05
24  2-2.22529061E-04-1.11970371E-03-1.01866773E-03-3.23307316E-04-1.52432943E-05
24  3-3.50494335E-04 2.87129818E-05 9.23138021E-05-6.04232961E-04 1.53716826E-03
24  4-9.76402200E-05 2.17240978E-07 1.23721114E-04-7.24215351E-05-4.68981276E-04
24  5 1.42924817E-04 8.19719403E-02-1.84426098E-01 2.86051810E-01 5.91559168E-03
24  6-1.03859617E-02 1.11977123E-02-1.46202817E-04-2.34251168E-04 1.48009683E-04
24  7-1.01298561E-03-2.28779131E-03 1.97357979E-03 2.75234026E-06-4.65351342E-04
24  8-5.11978524E-05 1.03250135E-04 2.61880573E-05 3.07462870E-05-3.03894568E-05
24  9-2.46499005E-04-2.41184093E-04 2.33057347E-03-1.23030757E-03-1.89182739E-04
24 10-7.92961309E-02 1.75062837E-01-2.80107953E-01 9.09110804E-04-8.11621737E-04
24 11-2.44218533E-04-8.15602848E-05 3.50065304E-05 2.82971955E-05-9.62618164E-03
24 12 2.78669166E-02-2.00464062E-02-9.67311776E-05-5.18883512E-04-4.35969740E-05
25  1-7.80052402E-04-4.46946413E-04 2.22626379E-04 7.28648226E-05 1.36330611E-04
25  2 3.01462860E-04-1.17166352E-03 6.14658429E-05-7.52057109E-04 1.75415390E-05
25  3-8.05440244E-05-2.03710789E-04-1.04499316E-01-2.40222527E-02 9.68029257E-02
25  4-5.66584076E-04 3.67500065E-04 4.14548613E-04-1.27919288E-02-3.82328450E-02
25  5 8.66371157E-03-7.22048451E-03 1.50157734E-03 5.91559168E-03 7.94686959E-01
25  6 8.36247574E-02 2.23609417E-02 4.09947472E-03 1.22059436E-02-3.67112738E-03
25  7-3.69885845E-02 1.02271382E-03 9.42096548E-03-3.39143038E-04-3.03982433E-03
25  8-4.97559346E-04 2.72007835E-04-1.01551927E-04-8.79717002E-05-6.05110243E-03
25  9 2.89626170E-03 3.32729875E-04-1.13329308E-01-2.57705327E-02 1.98149734E-03
25 10-2.45977763E-01 6.79664640E-02 3.20278744E-02-2.76909498E-01-9.11385005E-02
25 11-1.71289092E-01 2.29537209E-05-5.87846164E-06-5.50773821E-05 2.34459731E-03
25 12-2.66536440E-03-2.42843144E-03 5.10931412E-03 1.57212031E-02 5.40263280E-04
26  1-3.71995495E-04-3.13292649E-04-6.59755461E-05-1.92499258E-04 1.17443888E-04
26  2-4.58073542E-04 4.20436742E-04-1.99535617E-03-5.62709381E-05 2.81960148E-04
26  3 1.69295459E-04 6.46075231E-04-2.39862945E-02-8.55251527E-02 7.12103945E-02
26  4-1.33972253E-03 4.96158273E-04 7.76676018E-04-1.80042344E-02-1.31129201E-02
26  5 2.38796550E-03 2.03496666E-02-5.56119648E-03-1.03859617E-02 8.36247574E-02
26  6 6.65069761E-01-6.14481698E-03-6.49394998E-03-1.53020648E-02 8.41309146E-03
26  7-1.63695976E-02 1.54165788E-02 6.75415880E-03-1.98515835E-03-6.03523526E-03
26  8-5.95634730E-04 3.44425250E-04-1.10595560E-04-1.12222474E-04 1.17658080E-03
26  9-2.36530382E-04-4.23098694E-04-3.26533030E-02-2.83010915E-01 2.33768544E-02
26 10 7.39542823E-02-1.44924273E-01-1.80562879E-02-9.07217504E-02-1.09900035E-01
26 11-7.45531972E-02 3.56439527E-04-7.20712602E-05-1.31809328E-04 1.75009792E-02
26 12-4.51805626E-03 7.76712674E-04-5.89116246E-03-1.06512976E-02-3.35864143E-03
27  1-7.82247167E-04-4.11895818E-04-2.74366708E-04 2.79318823E-05-9.88003967E-06
27  2-1.72580562E-06 1.34128130E-04-2.90504568E-04 6.68600474E-04 2.08275726E-05
27  3-5.06215554E-05-2.74392541E-05 9.75968110E-02 7.21142984E-02-4.25393976E-01
27  4 1.62524596E-04-1.74005890E-05 8.65449181E-05 1.72157723E-03 2.59074347E-03
27  5 3.17040506E-04-2.49035512E-02 9.53111688E-03 1.11977123E-02 2.23609417E-02
27  6-6.14481698E-03 8.80715504E-01-8.31101727E-03-2.82946679E-02 9.44425227E-03
27  7 5.76768172E-03 9.00443976E-04-6.11911362E-05 6.45854797E-04 3.71486980E-04
27  8 1.30720042E-03 5.82996041E-05-6.74266694E-05-4.98521688E-05 6.06387205E-04
27  9-5.70932580E-05 1.68809842E-03 1.34798127E-03 2.07632555E-02-1.24851834E-01
27 10 3.10450078E-02-1.76691817E-02-1.30653970E-01-1.71103272E-01-7.47119472E-02
27 11-2.25177072E-01-2.59737163E-04 1.67152784E-05 1.27169202E-04 3.33833649E-02
27 12-1.19968726E-02-8.16256874E-04 1.04804994E-02 3.34342939E-02 1.75569078E-03
28  1 1.67273551E-04-6.84654821E-05 3.69716872E-05 1.47762982E-04-5.82509450E-05
28  2-2.04914046E-04 3.94805839E-04 5.16816255E-04 2.69552917E-03 7.09705204E-05
28  3-2.73085190E-04-6.34914061E-04 8.24907515E-04 3.04923949E-04-2.67662023E-04
28  4 6.09213036E-05 3.01502870E-05 1.46575897E-05-1.15975620E-02 2.47822479E-02
28  5 3.06228849E-02 2.37163798E-04 4.12333534E-05-1.46202817E-04 4.09947472E-03
28  6-6.49394998E-03-8.31101727E-03 1.14598141E-01-7.07477988E-02-1.03704336E-01
28  7-5.38633076E-03-1.61211569E-03 1.53148792E-03-7.80263446E-04 1.45283456E-03
28  8-2.12435702E-03-5.82674208E-04 1.74299187E-05 3.36579808E-04 7.28603738E-04
28  9-1.76758833E-04-6.27400099E-04-1.11385945E-01 6.74304752E-02 9.81585954E-02
28 10-1.82606856E-03-1.35445445E-03 1.29459913E-03-1.81304589E-04-1.15583667E-03
28 11 3.59589554E-04 2.31464083E-04-1.03260491E-04-8.69786767E-05 5.17327699E-04
28 12 2.20161012E-04-1.24426809E-04 9.66125730E-03-1.27522868E-02-1.88187359E-02
29  1-1.43291970E-04-2.29920404E-05-8.89919123E-05 9.51297867E-05-6.90209293E-05
29  2 2.57856449E-04-2.80458576E-04 1.03881823E-03-1.20561139E-04-1.30091437E-04
29  3-3.97581422E-05-2.84822180E-04 7.53421177E-04 3.51934951E-03-1.01171028E-03
29  4 8.61871213E-05-1.44403360E-06-3.09228977E-05-2.01244117E-03 5.66862316E-03
29  5 8.79497912E-03 4.63733574E-04-7.78677223E-05-2.34251168E-04 1.22059436E-02
29  6-1.53020648E-02-2.82946679E-02-7.07477988E-02 1.84638049E-01 1.67234875E-01
29  7-1.96879040E-03-1.81985915E-03-8.49284714E-04 2.83406044E-04 5.86512345E-04
29  8-2.66961670E-04-1.71764804E-04 3.34502866E-05 6.15473984E-05 1.20229010E-04
29  9 1.55604957E-04-2.79881901E-04 6.77724954E-02-1.81392924E-01-1.61504289E-01
29 10-1.38725502E-03-4.21247319E-03-2.15482465E-04 2.24146468E-04-2.82896250E-03
29 11 5.16489097E-04-1.08543067E-04-1.06738577E-05 4.10536124E-05 1.02706837E-03