!File created by the GAMESS Input Deck Generator Plugin for Avogadro
 $BASIS GBASIS=STO NGAUSS=3 $END
 $CONTRL SCFTYP=RHF RUNTYP=IRC $END
 $STATPT HESS=READ ihrep=5 $END
 $irc npoint=100 saddle=.t. tsengy=.t. forwrd=.t. optto=0.0005 stride=0.1 $END

$DATA
Title
C1
C     6.0     7.37635374    -0.06182691    -4.51312065
C     6.0     6.11627674     0.40444258    -4.09875107
C     6.0     6.05079174     1.53721344    -3.27049375
C     6.0     7.04414749     1.12625635    -1.66500819
C     6.0     7.54919577    -0.17443803    -1.83292103
C     6.0     8.42583847    -0.36028233    -2.91875219
C     6.0     9.47074890     0.72255605    -3.07240534
C     6.0     9.32661629     1.91132796    -2.52498412
C     6.0     8.08927631     2.25524783    -1.72667384
O     8.0     7.92537928     3.33574414    -1.17786062
H     1.0     7.40219164    -1.01219881    -5.03684759
H     1.0     8.04877663     0.66431600    -4.95478201
H     1.0     5.33153582    -0.33436540    -3.98342705
H     1.0     5.07622194     1.82008314    -2.88645649
H     1.0     6.63280249     2.39896798    -3.57670498
H     1.0     6.31206322     1.27898228    -0.87673038
H     1.0     6.96775150    -1.01596522    -1.47667181
H     1.0     8.80780506    -1.36329436    -3.08580256
H     1.0    10.35061169     0.47484040    -3.65625668
H     1.0    10.08408165     2.67979169    -2.60566235
 $END


$HESS
ENERGY IS     -416.0940647110 E(NUC) IS      511.4290795774
 1  1 6.07760131E-01 1.16634146E-01-3.70893393E-01-3.27799857E-01-3.03733875E-02
 1  2 6.44380639E-02 5.53852008E-02 5.94082531E-02 1.45101108E-01-8.34104218E-02
 1  3 9.54789653E-02-7.51473606E-02 7.93658063E-02-8.16804314E-02-1.03326683E-01
 1  4 2.58339603E-03-2.47170392E-03 2.10833913E-01-2.80744814E-02-1.19380590E-02
 1  5-2.77388100E-02-3.06942088E-03 8.12235133E-03-3.34496344E-04 3.31190840E-03
 1  6-3.63285238E-03 1.12358665E-02 5.65571453E-04 2.60579434E-03-1.99790857E-03
 1  7-7.02652963E-02-1.21420636E-03 2.64685228E-02-2.00998574E-01-1.71165268E-01
 1  8 1.41429501E-01-1.88353546E-02 1.99894810E-02 7.53312274E-03-1.41666007E-03
 1  9 9.42567383E-04-5.33273861E-03-1.00064895E-02 3.88464680E-03-1.30057344E-02
 1 10 5.52258058E-03-1.13577845E-03 4.28810506E-03-1.32188352E-03-1.69783254E-03
 1 11 1.24230891E-03-1.19186822E-02-2.10394608E-04-1.85178913E-02 6.82938390E-04
 1 12-5.89838896E-04 1.24926513E-03 1.93620736E-03-9.58843322E-04 2.47673358E-03
 2  1 1.16634146E-01 8.49778753E-01 1.77815823E-01 6.33490981E-02-1.46783425E-01
 2  2-3.79844807E-02 2.38349131E-02-2.64502541E-02-6.03864526E-02 2.81091845E-02
 2  3-3.13119475E-02 2.10517440E-02-2.35463725E-02 2.63788201E-02 3.72334738E-02
 2  4-1.41268162E-02-4.55073341E-02-6.85897671E-02-1.86616818E-03 4.04680888E-03
 2  5-5.26164316E-03 5.40089719E-04-3.61249226E-03-5.27486145E-04-2.78292476E-03
 2  6 8.17973216E-04-3.53649081E-03 4.11198182E-04-9.40409632E-04 7.08600528E-04
 2  7-5.71892929E-03-3.78927452E-01-1.78272358E-01-1.68688316E-01-2.59833115E-01
 2  8 9.43606800E-02-2.86408423E-02 1.47964150E-02 9.65449585E-03-1.42892821E-03
 2  9-4.43177691E-03-5.74749879E-03 4.29110135E-03 8.19361919E-04 6.15544395E-03
 2 10-2.38688626E-03 6.66938833E-04-1.73856656E-03-9.46263657E-06 9.40100941E-04
 2 11-1.35753068E-03 1.19807162E-02-9.91179736E-04 1.64653230E-02-5.90733762E-05
 2 12 9.93119273E-05 2.62885232E-04 1.05357590E-04 4.45670718E-04-3.06542487E-04
 3  1-3.70893393E-01 1.77815823E-01 4.29176874E-01 1.95193800E-01-1.01085877E-01
 3  2-1.60863246E-01 4.77732392E-02 1.33387195E-02 5.46777745E-02-3.66026476E-02
 3  3 4.56588101E-02-3.59105843E-02 4.33748475E-02-5.23234041E-02-7.96022756E-02
 3  4 2.04082029E-02 1.38236174E-03 8.27372273E-02-2.11462617E-02-1.41228618E-02
 3  5-1.60912887E-02-3.10814471E-03 7.99235067E-03 6.81601574E-04 3.33182085E-03
 3  6-1.76213693E-03 2.19549578E-03-4.04228037E-04 2.69598043E-03-3.74686761E-05
 3  7 1.33121906E-02-1.65828483E-01-1.52271919E-01 1.12084341E-01 9.55282252E-02
 3  8-1.15235673E-01 5.94338264E-03-6.97131371E-03 3.15107783E-03 9.29162489E-04
 3  9-5.31057431E-03-3.44454249E-04-8.26842528E-03 1.84772389E-03-9.13612785E-03
 3 10 1.44516646E-03 6.43140796E-04 2.66499864E-03-2.10212159E-04 1.17742831E-03
 3 11 4.97605092E-05-4.94087562E-03-6.81132851E-04-8.40205822E-03 1.03718705E-03
 3 12 5.84053034E-04 7.02069715E-04 7.39120882E-04-5.79371464E-04 1.86019508E-03
 4  1-3.27799857E-01 6.33490981E-02 1.95193800E-01 8.09114015E-01 1.40419142E-01
 4  2-1.53026873E-01-1.66135025E-01-3.76936364E-02-3.77921125E-02 4.28234635E-02
 4  3-4.30606711E-02 4.30942201E-02-5.51073843E-02 5.19015970E-02 3.38946590E-02
 4  4-3.23812818E-02 6.31592020E-03-1.31270561E-01 7.33726624E-03 2.61824546E-03
 4  5 6.89291317E-03 1.37075014E-03-2.96164216E-03 5.45714808E-04-2.42289801E-03
 4  6-1.10871978E-03-5.18778272E-03-6.78410740E-04-9.92966852E-04 6.60943134E-04
 4  7 4.69521458E-03-4.95946545E-03-9.63629711E-03-2.88875926E-02 1.61501813E-02
 4  8-1.51862304E-02-2.74643839E-01-1.99248556E-01 4.98076379E-02 9.59380735E-03
 4  9 3.13793547E-02 3.00002465E-02 1.20893099E-02-2.09355497E-02-1.23796611E-02
 4 10-1.76566928E-03-1.66763712E-04-2.52649447E-03-3.33401104E-04-2.02610390E-03
 4 11 1.70054233E-03 4.12943732E-03 2.04349447E-04 6.61240918E-03-2.23351600E-04
 4 12 3.04187043E-04-4.13538966E-04-7.72877321E-04 5.13105841E-04-9.85324053E-04
 5  1-3.03733875E-02-1.46783425E-01-1.01085877E-01 1.40419142E-01 7.65539898E-01
 5  2 1.74663233E-01 5.11030023E-02-3.64465952E-01-8.28824583E-02-7.33805585E-02
 5  3 7.06596807E-02-7.47716838E-02 7.06938389E-02-6.04180145E-02-3.91711538E-02
 5  4 2.97912993E-02-6.26492735E-03 1.22300476E-01-8.51377810E-03-3.78786533E-03
 5  5-5.81009257E-03-1.59430743E-03 3.98366598E-03-1.18552097E-03 4.48263391E-03
 5  6-1.36605806E-04 8.83602575E-03 3.07998831E-04 1.53505553E-03-1.69181801E-03
 5  7 3.92114126E-02-5.27409621E-03-2.97020993E-04-2.05067247E-02 1.66594030E-02
 5  8 2.14878893E-02-1.87401540E-01-2.57227986E-01 2.78671137E-02-8.36410790E-03
 5  9 6.38729629E-04-9.94589606E-03-7.74488109E-03-1.35626275E-02-3.91444045E-02
 5 10 4.88613278E-03-9.19799015E-04 4.78685756E-03-5.19503894E-04 4.08149760E-04
 5 11-6.98846867E-04-3.58281255E-03 3.61782851E-04-4.68850656E-03 2.91471101E-04
 5 12-4.03992506E-04 3.53410690E-04 7.92737128E-04-5.42448948E-04 1.07958525E-03
 6  1 6.44380639E-02-3.79844807E-02-1.60863246E-01-1.53026873E-01 1.74663233E-01
 6  2 3.97238392E-01 8.28716314E-02-1.54931912E-01-1.03909420E-01-7.44736721E-02
 6  3 5.93906576E-02-8.26013645E-02 1.52717449E-02-5.22875644E-02-6.73144539E-02
 6  4 5.81961413E-03 4.34297507E-04 7.05588682E-02-4.21319612E-03-5.97315278E-04
 6  5-3.66851729E-03-1.39591823E-03 1.53429094E-03-5.80591899E-04 5.31676800E-03
 6  6 2.21743190E-03 7.02167552E-03-1.95965809E-04-5.44256887E-04-1.51771104E-03
 6  7 2.34810830E-02-5.68154297E-03 2.24404577E-03 1.93734919E-02-7.62399592E-03
 6  8 9.88299269E-03 3.56899893E-02 1.42613146E-02-6.06624286E-02-8.81707639E-03
 6  9-4.85455033E-03-8.90206596E-03-1.04304241E-02 1.63583690E-02-7.36699255E-04
 6 10 3.16508164E-03-1.04274358E-03 3.28260136E-03 6.10744936E-04-2.38706680E-03
 6 11 3.84574266E-03-3.68676470E-03-5.26284453E-05-4.20708875E-03-2.03275266E-04
 6 12-6.26291152E-04 4.01096155E-04 4.03184432E-04-2.46889607E-04 4.88711355E-04
 7  1 5.53852008E-02 2.38349131E-02 4.77732392E-02-1.66135025E-01 5.11030023E-02
 7  2 8.28716314E-02 7.47609527E-01 3.33624125E-02-3.27508038E-01 1.06701511E-02
 7  3-5.15152350E-02 5.44635904E-02-4.75508057E-02 5.44808356E-02 2.18649343E-02
 7  4-5.89838050E-03 5.38347787E-03-5.76480261E-02 4.28581596E-03 1.30026023E-03
 7  5 2.53283394E-03 2.47011130E-03-1.31034449E-03 2.60228329E-03-1.83897505E-02
 7  6-9.15300276E-03-2.44872816E-02 8.62000653E-05 3.20116684E-03 3.80486523E-03
 7  7-8.10394948E-03 2.50783875E-03 1.23826492E-03-3.35495622E-03 2.13862640E-04
 7  8-7.59436585E-03 6.97880412E-03-2.42196056E-02-1.95271141E-02-3.95276126E-01
 7  9 8.40745124E-02 1.31455850E-01-1.85736471E-01-1.73525067E-01 8.52117111E-02
 7 10 1.71580376E-03-8.06918538E-05 4.18894744E-03-5.68079666E-04 8.60539584E-05
 7 11-1.49040316E-03 2.13010007E-03-4.04796684E-04 1.71110125E-03-1.87275394E-04
 7 12 3.93451372E-04-4.63284279E-04-1.29633546E-04 2.68104224E-04-1.00195612E-03
 8  1 5.94082531E-02-2.64502541E-02 1.33387195E-02-3.76936364E-02-3.64465952E-01
 8  2-1.54931912E-01 3.33624125E-02 8.85138358E-01 1.09240487E-01 3.02680669E-02
 8  3-6.70674571E-02 3.74296571E-02-1.35464548E-02 2.20094022E-02 2.06954873E-02
 8  4-5.77172904E-03-2.00650802E-03-5.31646154E-02 3.34335713E-03 1.83380639E-03
 8  5 5.29817251E-03 2.07932861E-03-2.23027396E-03 1.32909196E-03-4.43916945E-03
 8  6 2.08944933E-03-1.33442268E-02-1.89586222E-03-2.73426427E-03 1.15130153E-03
 8  7-3.19586601E-04 1.41630083E-03-5.17908763E-03-7.52728780E-04 1.07284062E-03
 8  8-2.98867226E-03 8.70661393E-03-1.56029280E-02-2.48127883E-02 8.77884741E-02
 8  9-1.08502004E-01-3.19314595E-02-1.56698205E-01-3.24752807E-01 9.69466624E-02
 8 10-2.26996869E-03 4.15111495E-04-2.38930773E-03-1.37464939E-03-1.56651360E-03
 8 11 8.31189009E-04 9.97900337E-04 7.82930589E-04 3.48791915E-03-2.28335481E-04
 8 12 1.49842863E-04-2.36982228E-04-9.63058782E-04 4.70958081E-04-7.70878775E-04
 9  1 1.45101108E-01-6.03864526E-02 5.46777745E-02-3.77921125E-02-8.28824583E-02
 9  2-1.03909420E-01-3.27508038E-01 1.09240487E-01 2.58753128E-01 1.40168791E-01
 9  3-1.23516208E-01 8.82015725E-02-1.07681093E-01 1.25500355E-01 5.56639138E-02
 9  4-6.05233004E-03 9.02854326E-04-1.53699644E-01 6.91971075E-03-2.33723080E-03
 9  5 8.62629081E-03 1.72094048E-03-2.60046496E-03 2.49391413E-03-2.16678234E-02
 9  6-1.23045124E-02-2.51423190E-02-1.11098172E-03 4.00589697E-03 4.43498592E-03
 9  7 1.52604443E-03-2.51328723E-04 9.89561892E-04-1.33292577E-02 1.65342625E-03
 9  8-1.70834946E-02 1.62416928E-03 9.64104957E-03 5.44617816E-03 1.44567440E-01
 9  9-4.56180747E-02-9.64585643E-02 8.77510180E-02 7.43300524E-02-6.94352958E-02
 9 10-1.77290167E-02 4.69966483E-03-1.88085012E-02-9.22253490E-04-1.94191128E-03
 9 11-1.72222400E-04 5.65538725E-03 7.08508998E-04 7.75694625E-03-5.34605745E-04
 9 12 6.92482808E-04-9.86310964E-04-7.04391890E-04 4.66659003E-04-1.35239635E-03
10  1-8.34104218E-02 2.81091845E-02-3.66026476E-02 4.28234635E-02-7.33805585E-02
10  2-7.44736721E-02 1.06701511E-02 3.02680669E-02 1.40168791E-01 5.72879182E-01
10  3 1.39213454E-02-3.81119162E-01-1.05926180E-01 5.08583188E-02 2.34498344E-02
10  4-1.27411890E-02 3.19832993E-02 9.47769566E-02-1.65644341E-03 3.81586097E-03
10  5-1.00168350E-02-1.79189415E-02-2.47257309E-02 2.89806448E-03-1.91033414E-01
10  6-6.45246524E-02 4.56627298E-02 2.05042142E-02-1.09656960E-02-5.99321774E-03
10  7 1.27717258E-03-1.51103110E-03 2.82352585E-03 5.50502837E-03-3.12017367E-04
10  8 8.14426818E-03 8.27247530E-04 7.65267707E-04 9.92668984E-04-8.53521063E-03
10  9 7.17416486E-03-2.23974822E-02-5.32627857E-03 1.77170086E-03-7.59959281E-03
10 10-2.39718651E-01 2.98852726E-02 2.13819077E-01 1.52963469E-02-2.40534272E-02
10 11-2.43928758E-03-2.61960672E-03-6.33651201E-04 3.72038908E-03 1.20436039E-03
10 12-2.49566718E-04-3.44103032E-07-2.10196538E-03 1.80246884E-03 4.18792306E-03
11  1 9.54789653E-02-3.13119475E-02 4.56588101E-02-4.30606711E-02 7.06596807E-02
11  2 5.93906576E-02-5.15152350E-02-6.70674571E-02-1.23516208E-01 1.39213454E-02
11  3 7.44169751E-01 1.96432674E-01 2.94721585E-02-3.87199138E-01 4.27864323E-03
11  4 9.90964266E-03 1.93246178E-03-1.21175466E-01 2.20233454E-03-7.08999269E-03
11  5 5.61795627E-03 2.91517640E-04 9.88763714E-03-1.36620391E-03-8.87634200E-02
11  6-1.64240090E-01-1.96806559E-02-3.36664335E-02-5.91223934E-02-1.29680335E-02
11  7-2.37940669E-03 2.56287571E-03-3.12150799E-03-7.90264886E-03 6.27563259E-04
11  8-1.02398089E-02-1.85358675E-03-1.23148625E-03-1.79438182E-04 3.67217362E-03
11  9-3.17192354E-03 1.06414886E-02 1.64051040E-02-6.27796815E-03 2.19832786E-02
11 10 2.77258711E-02-8.43503087E-02-5.13536061E-02 2.23122164E-02-1.81410198E-02
11 11-6.18193922E-03 4.57039811E-03 4.96104334E-04 6.19217136E-03 2.69252150E-04
11 12 5.40029087E-05 1.00437071E-04 2.91161043E-03-1.18392725E-03-5.14600082E-04
12  1-7.51473606E-02 2.10517440E-02-3.59105843E-02 4.30942201E-02-7.47716838E-02
12  2-8.26013645E-02 5.44635904E-02 3.74296571E-02 8.82015725E-02-3.81119162E-01
12  3 1.96432674E-01 4.53623761E-01 1.10303287E-01-1.19839523E-01-1.38952202E-01
12  4 9.69591502E-03-3.94471335E-02 7.69641531E-02-4.14727897E-03 1.03284886E-02
12  5-7.94534096E-03 2.34729694E-02 1.24303900E-02 7.02474613E-03 4.09589135E-02
12  6 1.01635873E-02-8.81632123E-02-1.25075504E-02-3.13013956E-02 1.05446984E-02
12  7 2.24899202E-04-6.27305219E-05 2.71625398E-03 3.52913368E-03-5.76435963E-04
12  8 7.10546656E-03-9.33066411E-04 3.77588436E-04 2.96462368E-04-3.97380713E-04
12  9 1.10296118E-03-5.62090941E-03-1.65920258E-02 6.11226662E-03-2.18828963E-02
12 10 1.99723986E-01-3.83083129E-02-2.66763536E-01-2.78197837E-03 1.22131614E-02
12 11 7.56036840E-03 4.59895000E-03-1.52187461E-04-5.86059327E-03-9.18927801E-04
12 12-2.22875443E-04-4.20687197E-04 4.47819838E-03-2.96107611E-03 8.65665065E-05
13  1 7.93658063E-02-2.35463725E-02 4.33748475E-02-5.51073843E-02 7.06938389E-02
13  2 1.52717449E-02-4.75508057E-02-1.35464548E-02-1.07681093E-01-1.05926180E-01
13  3 2.94721585E-02 1.10303287E-01 5.95714767E-01 7.95217499E-02-2.92724266E-01
13  4-2.67472661E-01 3.58797603E-02 1.22302213E-01-2.15832455E-02-1.91324948E-02
13  5 3.54395500E-02-2.05573887E-03 5.92366091E-03 3.47477120E-03 1.89340470E-02
13  6-1.80677894E-02-1.62123284E-02-7.11047723E-03-8.91544467E-03 1.36104747E-04
13  7-1.41328101E-03 1.64305978E-03-3.59122667E-03-5.70888287E-03 8.33338175E-04
13  8-9.72986106E-03 2.43923809E-03 3.12001629E-04 1.86597533E-03 1.66220001E-03
13  9-1.23936704E-03 3.83527142E-03 5.47255224E-03-2.07004644E-03 7.30178009E-03
13 10-7.98174008E-03 2.68956405E-02-9.00063757E-03-1.81431215E-01-1.60218657E-01
13 11 7.79790182E-02 1.11706939E-03-2.90491979E-03 1.73084897E-02-1.00918099E-03
13 12-2.29914846E-03 2.10381017E-04-3.54416898E-04 7.66888342E-04 1.34351177E-04
14  1-8.16804314E-02 2.63788201E-02-5.23234041E-02 5.19015970E-02-6.04180145E-02
14  2-5.22875644E-02 5.44808356E-02 2.20094022E-02 1.25500355E-01 5.08583188E-02
14  3-3.87199138E-01-1.19839523E-01 7.95217499E-02 8.93114352E-01-5.33915171E-02
14  4 1.89990848E-02-1.59132415E-01 6.43784210E-02-2.53547338E-02 1.37856539E-02
14  5 1.96235539E-02 1.56218458E-03 1.60892363E-03-1.26111211E-03 9.17158905E-03
14  6-4.33392724E-02 1.57461894E-02-2.57416243E-03 4.30019425E-03-9.36594592E-04
14  7 1.01613749E-03-6.81389492E-04 2.80362339E-03 4.36604513E-03-1.08121836E-03
14  8 8.47679763E-03-7.12656373E-04-7.13283103E-04 6.37347040E-04-1.96834273E-03
14  9 1.96857275E-03-6.34007732E-03-7.66430369E-03 2.82020848E-03-9.95822727E-03
14 10 2.49333864E-03 1.82509092E-03 1.15205306E-02-1.70608717E-01-3.14213829E-01
14 11 8.90837355E-02 1.83767858E-02 4.05627763E-03-4.10519643E-02-3.93149091E-03
14 12-5.34948570E-03-2.17598894E-05 1.74604887E-03 2.59059058E-04-3.57100250E-04
15  1-1.03326683E-01 3.72334738E-02-7.96022756E-02 3.38946590E-02-3.91711538E-02
15  2-6.73144539E-02 2.18649343E-02 2.06954873E-02 5.56639138E-02 2.34498344E-02
15  3 4.27864323E-03-1.38952202E-01-2.92724266E-01-5.33915171E-02 5.13482083E-01
15  4 2.21631448E-01-4.67957424E-02-1.92135969E-01-8.41278703E-04 1.01354790E-02
15  5-1.34707401E-02-8.08599224E-04-3.06896374E-03-5.67516208E-06-8.97068115E-03
15  6-7.00874512E-03 1.06518830E-02 2.10094194E-03 4.76308722E-03 5.72376313E-04
15  7 2.55736333E-03-2.15430645E-03 3.78906660E-03 6.70431326E-03-1.27062160E-03
15  8 9.73807394E-03 3.54755553E-03 1.13954569E-03 2.60711280E-03-1.27771857E-03
15  9 1.65403934E-03-2.58308169E-03-4.31224622E-03 2.54899841E-03-5.11084772E-03
15 10 1.36083704E-02-3.36560393E-02 6.93441986E-03 9.16681068E-02 1.01075787E-01
15 11-9.98006712E-02-8.49730364E-03 5.62753247E-03-5.45826231E-03-8.60607277E-04
15 12-1.97779360E-03 9.02403873E-04 5.90286310E-04-6.59287923E-04 9.32852061E-05
16  1 2.58339603E-03-1.41268162E-02 2.04082029E-02-3.23812818E-02 2.97912993E-02
16  2 5.81961413E-03-5.89838050E-03-5.77172904E-03-6.05233004E-03-1.27411890E-02
16  3 9.90964266E-03 9.69591502E-03-2.67472661E-01 1.89990848E-02 2.21631448E-01
16  4 6.41883610E-01-6.71989035E-02-3.27312112E-01-2.07485757E-01-6.74548257E-02
16  5 3.38666431E-02 1.77130053E-02-1.95011877E-02-6.33295736E-03-4.13431355E-03
16  6 7.97467398E-03-6.00833606E-03 9.25494825E-05-3.63046577E-03 5.85307709E-04
16  7-2.36692453E-03 2.27964518E-03-2.85994435E-03 2.95036343E-04-3.11324088E-04
16  8-1.32546988E-04-1.25322134E-03-1.23517980E-03-1.01287300E-03 4.57724306E-04
16  9-9.91590607E-04-1.50767138E-03 1.63099987E-04-1.31572406E-03-4.43746493E-04
16 10 2.97767108E-03 2.07599701E-03 4.61301796E-03-4.15881501E-03 1.12252216E-02
16 11 1.89836613E-02-1.18632549E-01 1.23894703E-01 3.05379120E-02-1.12887435E-02
16 12-2.54963350E-02-1.46796308E-03 1.64936676E-03 8.84643354E-04 6.98891703E-03
17  1-2.47170392E-03-4.55073341E-02 1.38236174E-03 6.31592020E-03-6.26492735E-03
17  2 4.34297507E-04 5.38347787E-03-2.00650802E-03 9.02854326E-04 3.19832993E-02
17  3 1.93246178E-03-3.94471335E-02 3.58797603E-02-1.59132415E-01-4.67957424E-02
17  4-6.71989035E-02 8.64709901E-01 1.01365652E-01-1.04609849E-01-2.23444690E-01
17  5 3.34240401E-03-2.97754616E-02-3.53115676E-02 1.36288404E-03 2.68456541E-03
17  6 2.65300758E-03 4.13168358E-03-1.40656187E-03-1.88186145E-04 5.59201273E-04
17  7-6.12340436E-03 3.97359524E-03-1.16116788E-02 7.76540565E-03-9.45296267E-04
17  8 1.22706767E-02 7.08136216E-04 1.96384086E-04 5.54078050E-04-5.54450723E-04
17  9 1.34141269E-04 9.57963635E-04 7.28274026E-04 4.60271229E-04 4.45797860E-04
17 10 2.13776554E-03-8.57650200E-03 7.05615884E-04-2.00394366E-02 1.06800562E-02
17 11 2.68012798E-02 1.29738080E-01-4.10938957E-01-4.78463547E-02 1.04659153E-02
17 12 8.69260802E-03-2.46807571E-03-1.61035195E-03-1.11632897E-03-7.04795141E-03
18  1 2.10833913E-01-6.85897671E-02 8.27372273E-02-1.31270561E-01 1.22300476E-01
18  2 7.05588682E-02-5.76480261E-02-5.31646154E-02-1.53699644E-01 9.47769566E-02
18  3-1.21175466E-01 7.69641531E-02 1.22302213E-01 6.43784210E-02-1.92135969E-01
18  4-3.27312112E-01 1.01365652E-01 2.84012000E-01 5.95483308E-02 1.05248529E-02
18  5-7.03187022E-02-8.61342497E-03-1.67185957E-02 5.07874648E-03-8.00495249E-03
18  6 1.29577210E-02-2.07740231E-02 3.90956555E-04-5.51175187E-03 2.53404423E-03
18  7-9.38305285E-03 8.50276214E-03-1.59152135E-02-2.22045455E-02 5.14242158E-03
18  8-3.60600925E-02 1.50607122E-03 1.30896689E-03-1.66217820E-03 2.08905568E-03
18  9-2.63084854E-03 7.25838560E-03 1.11000899E-02-3.25696832E-03 1.26745632E-02
18 10-2.81324998E-03 9.86249690E-04-1.22122289E-03 1.34762823E-03-7.99188013E-03
18 11-3.61840331E-03 4.60442078E-02-6.07792437E-02-5.60411657E-02 1.32603277E-02
18 12 1.71969465E-02 3.70345651E-03 4.05381468E-03-4.84313412E-03 5.92225942E-03
19  1-2.80744814E-02-1.86616818E-03-2.11462617E-02 7.33726624E-03-8.51377810E-03
19  2-4.21319612E-03 4.28581596E-03 3.34335713E-03 6.91971075E-03-1.65644341E-03
19  3 2.20233454E-03-4.14727897E-03-2.15832455E-02-2.53547338E-02-8.41278703E-04
19  4-2.07485757E-01-1.04609849E-01 5.95483308E-02 7.10521175E-01-1.24586654E-02
19  5-2.86248427E-01-1.58098177E-01 6.11517900E-02 6.68296297E-02 1.50992669E-02
19  6 3.82019314E-02 1.11533990E-02-1.04599793E-02 8.84012654E-04 5.58781053E-03
19  7 1.30944282E-04-5.87147370E-04 6.01672088E-06-7.07611178E-04-2.26344812E-03
19  8-1.06357284E-05 3.70842605E-04-1.36970313E-04 3.87701430E-04-2.44815372E-05
19  9-1.50325108E-04 3.24428608E-04-5.87774417E-04 5.09743879E-04-2.26432848E-04
19 10 4.64217388E-04-1.01060948E-03-1.21622490E-05 1.79061626E-03-1.40886277E-05
19 11 4.76413633E-03 1.14980107E-02 1.35596150E-02-5.25986651E-03-3.33574197E-01
19 12 6.63925032E-02 1.78808711E-01 1.07535942E-02-2.92795043E-02-1.22244179E-02
20  1-1.19380590E-02 4.04680888E-03-1.41228618E-02 2.61824546E-03-3.78786533E-03
20  2-5.97315278E-04 1.30026023E-03 1.83380639E-03-2.33723080E-03 3.81586097E-03
20  3-7.08999269E-03 1.03284886E-02-1.91324948E-02 1.37856539E-02 1.01354790E-02
20  4-6.74548257E-02-2.23444690E-01 1.05248529E-02-1.24586654E-02 9.96658098E-01
20  5 3.24189289E-01 2.93586842E-02-6.46703985E-01-2.50276913E-01 2.91154080E-02
20  6-1.42559853E-02-2.60733302E-02-5.50306323E-03 1.06900069E-02 6.38405924E-03
20  7 6.05126133E-04-6.83438934E-04 7.54932757E-04 1.02818552E-04 6.55684249E-04
20  8 1.69292204E-03 1.25542556E-04-1.18736023E-04 2.36975311E-04 6.97185378E-05
20  9-3.70798731E-04 1.23909160E-03 2.40923773E-04 9.91677933E-05 4.50953587E-04
20 10-1.44971206E-03-1.04024232E-03-6.61098757E-04-8.09458717E-04-5.54673787E-04
20 11-5.13740433E-03-3.31073558E-02-1.74737850E-02 3.50189206E-03 7.16232738E-02
20 12-9.52357560E-02-5.70726146E-02 1.28771057E-02-1.70092922E-02-1.31594392E-02
21  1-2.77388100E-02-5.26164316E-03-1.60912887E-02 6.89291317E-03-5.81009257E-03
21  2-3.66851729E-03 2.53283394E-03 5.29817251E-03 8.62629081E-03-1.00168350E-02
21  3 5.61795627E-03-7.94534096E-03 3.54395500E-02 1.96235539E-02-1.34707401E-02
21  4 3.38666431E-02 3.34240401E-03-7.03187022E-02-2.86248427E-01 3.24189289E-01
21  5 4.93256510E-01 5.57447678E-02-2.61510520E-01-2.07756704E-01 1.04823034E-02
21  6-3.18447745E-02-9.92099554E-03 3.05942024E-03 4.87251536E-03 7.98448423E-04
21  7-4.51693112E-04 1.63522423E-04-8.03695726E-04-5.40512730E-03-2.69190546E-03
21  8-1.40698684E-03-4.65494914E-05-5.56173086E-04 7.35123483E-04-3.75035935E-05
21  9 1.98901093E-04-9.09401673E-04-1.61270215E-03 6.81133779E-06-1.11468887E-03
21 10-6.78181695E-04 1.44168075E-04-1.96704918E-04 7.34332655E-03-1.88553548E-03
21 11-1.08795062E-03-6.00451322E-03-4.68056420E-03 7.09718681E-04 1.79482833E-01
21 12-5.39179121E-02-1.78019144E-01 3.39535031E-03 4.70166492E-03 8.58461096E-03
22  1-3.06942088E-03 5.40089719E-04-3.10814471E-03 1.37075014E-03-1.59430743E-03
22  2-1.39591823E-03 2.47011130E-03 2.07932861E-03 1.72094048E-03-1.79189415E-02
22  3 2.91517640E-04 2.34729694E-02-2.05573887E-03 1.56218458E-03-8.08599224E-04
22  4 1.77130053E-02-2.97754616E-02-8.61342497E-03-1.58098177E-01 2.93586842E-02
22  5 5.57447678E-02 6.68657592E-01 1.50386617E-01-2.11701308E-01-2.43501501E-01
22  6-2.72508071E-03 7.74080504E-02 3.19389312E-03 2.40570563E-02 2.01322817E-02
22  7 4.76398236E-05-9.08285911E-05 1.42485056E-04-6.72725225E-04-2.15542451E-04
22  8-1.08626926E-04 8.90706270E-05-3.45975410E-05 5.39650605E-05 1.91450360E-04
22  9-2.25687928E-04 4.12172470E-04-9.59292656E-04-7.59131222E-05-3.51513732E-04
22 10-1.68740635E-03-3.48486014E-03-8.21934004E-04-2.54211589E-04 3.76871537E-04
22 11-1.47507747E-03-4.80709049E-03-3.18656332E-03 1.07880577E-03 8.00106546E-03
22 12 3.24148512E-02 1.50812886E-02-2.68710394E-01-1.99658407E-01 3.31372003E-02
23  1 8.12235133E-03-3.61249226E-03 7.99235067E-03-2.96164216E-03 3.98366598E-03
23  2 1.53429094E-03-1.31034449E-03-2.23027396E-03-2.60046496E-03-2.47257309E-02
23  3 9.88763714E-03 1.24303900E-02 5.92366091E-03 1.60892363E-03-3.06896374E-03
23  4-1.95011877E-02-3.53115676E-02-1.67185957E-02 6.11517900E-02-6.46703985E-01
23  5-2.61510520E-01 1.50386617E-01 1.09161272E+00 3.02249157E-01-7.88848551E-03
23  6-1.19715339E-01-7.01323350E-03 4.95296356E-02-2.45371053E-02-4.61979377E-02
23  7-5.63984366E-04 5.11991799E-04-5.30454179E-04 1.24969056E-04-4.29309091E-05
23  8 1.85884896E-05-1.01196575E-04 1.97876374E-04-6.70117214E-05 2.38970748E-04
23  9 2.90271861E-04-2.31034681E-04 1.47978864E-04 1.29292576E-04-4.47227965E-04
23 10-3.24312229E-03-4.24216243E-03-7.77447614E-04 3.06252568E-04 8.38247671E-04
23 11-2.85488594E-05-1.85315749E-03-1.20102849E-03 1.91953833E-03-8.81637763E-03
23 12-6.78892424E-04-4.48151695E-04-2.04966614E-01-2.70784679E-01 1.34951018E-02
24  1-3.34496344E-04-5.27486145E-04 6.81601574E-04 5.45714808E-04-1.18552097E-03
24  2-5.80591899E-04 2.60228329E-03 1.32909196E-03 2.49391413E-03 2.89806448E-03
24  3-1.36620391E-03 7.02474613E-03 3.47477120E-03-1.26111211E-03-5.67516208E-06
24  4-6.33295736E-03 1.36288404E-03 5.07874648E-03 6.68296297E-02-2.50276913E-01
24  5-2.07756704E-01-2.11701308E-01 3.02249157E-01 3.89057699E-01 7.77881403E-02
24  6-3.78086862E-03-1.35014107E-01 3.10215916E-02-3.55745416E-02-7.96131160E-03
24  7-4.75099602E-04-1.34053851E-04-3.91859602E-05-2.10961287E-04-7.52718530E-04
24  8 7.23333985E-04-1.24475965E-04 1.45953078E-04 6.00127395E-05 2.27716004E-05
24  9-9.51009517E-05 2.59450936E-04 1.63119112E-05 1.73701186E-04-4.59825900E-04
24 10 3.94020175E-04-1.42237246E-03 1.57972256E-03 3.37266965E-05-4.65758834E-04
24 11 4.05951376E-04 1.91666453E-03 1.54439195E-03 1.08598281E-03 1.68819610E-04
24 12-2.32727919E-02 5.23880152E-03 3.14660642E-02 1.33097950E-02-6.18732207E-02
25  1 3.31190840E-03-2.78292476E-03 3.33182085E-03-2.42289801E-03 4.48263391E-03
25  2 5.31676800E-03-1.83897505E-02-4.43916945E-03-2.16678234E-02-1.91033414E-01
25  3-8.87634200E-02 4.09589135E-02 1.89340470E-02 9.17158905E-03-8.97068115E-03
25  4-4.13431355E-03 2.68456541E-03-8.00495249E-03 1.50992669E-02 2.91154080E-02
25  5 1.04823034E-02-2.43501501E-01-7.88848551E-03 7.77881403E-02 5.68750961E-01
25  6-2.48657879E-02-1.83266684E-01-1.15594087E-01 9.37910079E-02 6.65093277E-02
25  7-6.22722615E-04-2.69749837E-04-9.24532644E-05 4.60740643E-04-2.33125017E-04
25  8 1.12899759E-03-4.10949936E-04-3.13940479E-05 4.20318819E-04 5.57099507E-05
25  9 2.22603367E-04 2.85985452E-04-9.60767058E-04-2.03257426E-03-1.99807296E-03
25 10-1.25840052E-02-1.99851918E-02-4.50721599E-03-2.30921309E-03 5.95202552E-03
25 11 4.16417870E-03-1.99178353E-03-1.25762495E-03 3.69334612E-04 4.22191436E-04
25 12-5.80273854E-03 6.04996623E-03-1.30797645E-02 1.29310332E-02 1.17020421E-02
26  1-3.63285238E-03 8.17973216E-04-1.76213693E-03-1.10871978E-03-1.36605806E-04
26  2 2.21743190E-03-9.15300276E-03 2.08944933E-03-1.23045124E-02-6.45246524E-02
26  3-1.64240090E-01 1.01635873E-02-1.80677894E-02-4.33392724E-02-7.00874512E-03
26  4 7.97467398E-03 2.65300758E-03 1.29577210E-02 3.82019314E-02-1.42559853E-02
26  5-3.18447745E-02-2.72508071E-03-1.19715339E-01-3.78086862E-03-2.48657879E-02
26  6 1.09949779E+00 3.79082801E-01 9.77446993E-02-7.79229523E-01-3.55324829E-01
26  7 2.97916641E-04-6.94414976E-04 5.89801618E-04 1.19048971E-03 2.46367414E-04
26  8 1.08742520E-03-4.09597558E-05-5.20037273E-05-4.73570696E-04-1.77822218E-04
26  9-4.79542852E-04 1.07388297E-03 1.91184579E-03 8.54831420E-04 4.21058328E-03
26 10 5.63304316E-03 8.74126171E-03-3.64998859E-03-8.48524805E-04-2.24177713E-03
26 11-3.74719799E-03-7.16663037E-04 1.82919252E-04 5.66228318E-04-4.58441196E-03
26 12-2.75328242E-03-6.19803892E-03-2.25089630E-02 1.20536600E-02 1.41457423E-02
27  1 1.12358665E-02-3.53649081E-03 2.19549578E-03-5.18778272E-03 8.83602575E-03
27  2 7.02167552E-03-2.44872816E-02-1.33442268E-02-2.51423190E-02 4.56627298E-02
27  3-1.96806559E-02-8.81632123E-02-1.62123284E-02 1.57461894E-02 1.06518830E-02
27  4-6.00833606E-03 4.13168358E-03-2.07740231E-02 1.11533990E-02-2.60733302E-02
27  5-9.92099554E-03 7.74080504E-02-7.01323350E-03-1.35014107E-01-1.83266684E-01
27  6 3.79082801E-01 4.95863686E-01 6.64926409E-02-3.55222330E-01-2.54932130E-01
27  7-1.38209542E-04 7.02820054E-04-5.53476249E-04-1.48088041E-03-2.20195132E-05
27  8-2.20816190E-03 1.62959040E-04-3.91773557E-04 4.01381172E-04-1.14139059E-04
27  9 4.00371519E-04-2.26679924E-04-4.31932627E-03-2.46528466E-03-1.08240008E-03
27 10 1.66049133E-02 2.49582767E-02 1.64862818E-03 4.84534022E-03 2.31258476E-05
27 11 4.75380094E-03 1.56526904E-03 1.20494548E-03 3.47775818E-04 7.53398790E-03
27 12-4.52262514E-03 1.15573087E-02-1.44873631E-03-2.81381995E-03 3.57698884E-03
28  1 5.65571453E-04 4.11198182E-04-4.04228037E-04-6.78410740E-04 3.07998831E-04
28  2-1.95965809E-04 8.62000653E-05-1.89586222E-03-1.11098172E-03 2.05042142E-02
28  3-3.36664335E-02-1.25075504E-02-7.11047723E-03-2.57416243E-03 2.10094194E-03
28  4 9.25494825E-05-1.40656187E-03 3.90956555E-04-1.04599793E-02-5.50306323E-03
28  5 3.05942024E-03 3.19389312E-03 4.95296356E-02 3.10215916E-02-1.15594087E-01
28  6 9.77446993E-02 6.64926409E-02 1.01375360E-01-1.05932961E-01-8.39060116E-02
28  7 1.98468832E-04 7.08578525E-05 8.84961290E-06-2.53665365E-04 3.94752047E-05
28  8-5.46069987E-04 2.27991239E-04-2.61093429E-05-4.89182974E-05 1.57273244E-04
28  9 6.09230335E-05 3.28368342E-04-2.14171719E-04 4.20494562E-05 5.71896939E-04
28 10 1.76863762E-03 3.18819723E-03-1.06430479E-03 1.27696911E-03-1.73563877E-03
28 11-7.48088300E-04 7.98724725E-04 4.49827185E-04 4.29742783E-06 5.65251519E-04
28 12 2.52667439E-03-6.51171153E-04 3.49966305E-03-1.63002435E-03-2.79625607E-03
29  1 2.60579434E-03-9.40409632E-04 2.69598043E-03-9.92966852E-04 1.53505553E-03
29  2-5.44256887E-04 3.20116684E-03-2.73426427E-03 4.00589697E-03-1.09656960E-02
29  3-5.91223934E-02-3.13013956E-02-8.91544467E-03 4.30019425E-03 4.76308722E-03
29  4-3.63046577E-03-1.88186145E-04-5.51175187E-03 8.84012654E-04 1.06900069E-02
29  5 4.87251536E-03 2.40570563E-02-2.45371053E-02-3.55745416E-02 9.37910079E-02
29  6-7.79229523E-01-3.55222330E-01-1.05932961E-01 8.49274154E-01 4.09971542E-01
29  7-1.24431770E-04 3.03594211E-04-3.02152482E-04-3.09286624E-04-6.82296409E-05
29  8-5.07321906E-04 1.89380819E-04 2.19771805E-04 2.17754000E-04 4.92529570E-05
29  9 1.73622092E-04-4.28192245E-04-9.03071698E-05 3.34524507E-05-7.08024634E-04
29 10 3.34699912E-03 3.18009862E-03 5.65629000E-04 1.95379618E-03-1.72856155E-03
29 11 8.68505733E-04 5.42010789E-04 1.68756025E-04 4.11970607E-04 8.83019905E-04