!File created by the GAMESS Input Deck Generator Plugin for Avogadro
 $BASIS GBASIS=STO NGAUSS=3 $END
 $CONTRL SCFTYP=RHF RUNTYP=SADPOINT $END
 $STATPT hssend=.t. OPTTOL=0.0005 NSTEP=50 $END
 $STATPT HESS=calc ihrep=5 $END
 $FORCE nvib=2 $END
 $ZMAT DLC=.t. auto=.t. nonvdw(1)=1,6,3,4 $END
!$ZMAT IFZMAT(1)=1,1,6,1,3,4 fvalue(1)=2.00,2.00 $END


 $DATA 
Title
C1
C     6.0     7.36072540    -0.04892119    -4.54048061
C     6.0     6.11079788     0.40125200    -4.10032940
C     6.0     6.03088522     1.54295897    -3.29448581
C     6.0     7.06449032     1.12085271    -1.63512242
C     6.0     7.55001402    -0.17821182    -1.82839549
C     6.0     8.44544601    -0.36793518    -2.89075017
C     6.0     9.47994041     0.71455026    -3.05974483
C     6.0     9.33113098     1.90856957    -2.52252889
C     6.0     8.09563923     2.25447416    -1.72365284
O     8.0     7.92466497     3.34518337    -1.19554961
H     1.0     7.39979076    -1.00034845    -5.06068897
H     1.0     8.04098701     0.68372703    -4.95717430
H     1.0     5.33114290    -0.34217903    -3.98115396
H     1.0     5.06078196     1.81802380    -2.89463639
H     1.0     6.62019205     2.40358615    -3.58794570
H     1.0     6.32386923     1.27603662    -0.85590911
H     1.0     6.96136904    -1.01817083    -1.48024511
H     1.0     8.81276798    -1.37317216    -3.07314253
H     1.0    10.35933018     0.46721503    -3.64437151
H     1.0    10.08450031     2.67990780    -2.61400461
 $END
