!File created by the GAMESS Input Deck Generator Plugin for Avogadro
 $BASIS GBASIS=STO NGAUSS=3 $END
 $CONTRL SCFTYP=RHF RUNTYP=OPTIMIZE NZVAR=1 mult=1  ICHARG=0 $END
 $STATPT hssend=.t. OPTTOL=0.0005 NSTEP=50 $END
 $STATPT HESS=calc ihrep=5 $END
 $FORCE nvib=2 $END
 $ZMAT DLC=.t. auto=.t. nonvdw(1)=1,6,3,4 $END
 $ZMAT IFZMAT(1)=1,1,6,1,3,4 fvalue(1)=2.00,2.00 $END

 $DATA 
Title
C1
C     6.0     7.34281     0.09096    -4.53500
C     6.0     6.07666     0.37500    -4.13624
C     6.0     5.82798     1.49180    -3.15761
C     6.0     7.07094     1.15539    -1.62946
C     6.0     7.57902    -0.23254    -1.90688
C     6.0     8.46382    -0.34829    -2.93474
C     6.0     9.55969     0.64936    -2.92564
C     6.0     9.42851     1.86809    -2.38207
C     6.0     8.13173     2.23659    -1.75695
O     8.0     7.94172     3.39649    -1.39609
H     1.0     7.49740    -0.77780    -5.17956
H     1.0     7.99145     0.95700    -4.70781
H     1.0     5.29443    -0.37049    -4.25502
H     1.0     4.84093     1.42526    -2.69138
H     1.0     6.05538     2.49502    -3.52489
H     1.0     6.47347     1.25773    -0.72099
H     1.0     6.96301    -1.07716    -1.61384
H     1.0     8.74841    -1.35425    -3.26367
H     1.0    10.49893     0.34566    -3.38044
H     1.0    10.21669     2.60843    -2.37824
 $END
