!File created by the GAMESS Input Deck Generator Plugin for Avogadro
 $BASIS GBASIS=STO NGAUSS=3 $END
 $CONTRL SCFTYP=RHF RUNTYP=SADPOINT $END
 $STATPT hssend=.t. OPTTOL=0.0005 NSTEP=50 $END
 $STATPT HESS=calc ihrep=5 $END
 $FORCE nvib=2 $END
 $ZMAT DLC=.t. auto=.t. nonvdw(1)=1,6,3,4 $END
!$ZMAT IFZMAT(1)=1,1,6,1,3,4 fvalue(1)=2.00,2.00 $END


 $DATA 
Title
C1
C     6.0     7.37635374    -0.06182691    -4.51312065
C     6.0     6.11627674     0.40444258    -4.09875107
C     6.0     6.05079174     1.53721344    -3.27049375
C     6.0     7.04414749     1.12625635    -1.66500819
C     6.0     7.54919577    -0.17443803    -1.83292103
C     6.0     8.42583847    -0.36028233    -2.91875219
C     6.0     9.47074890     0.72255605    -3.07240534
C     6.0     9.32661629     1.91132796    -2.52498412
C     6.0     8.08927631     2.25524783    -1.72667384
O     8.0     7.92537928     3.33574414    -1.17786062
H     1.0     7.40219164    -1.01219881    -5.03684759
H     1.0     8.04877663     0.66431600    -4.95478201
H     1.0     5.33153582    -0.33436540    -3.98342705
H     1.0     5.07622194     1.82008314    -2.88645649
H     1.0     6.63280249     2.39896798    -3.57670498
H     1.0     6.31206322     1.27898228    -0.87673038
H     1.0     6.96775150    -1.01596522    -1.47667181
H     1.0     8.80780506    -1.36329436    -3.08580256
H     1.0    10.35061169     0.47484040    -3.65625668
H     1.0    10.08408165     2.67979169    -2.60566235
 $END